\* The_truck_routing_problem *\
Minimize
routing_cost: 700 Pattern_0 + 700 Pattern_1 + 700 Pattern_10 + 700 Pattern_100
 + 525 Pattern_101 + 700 Pattern_102 + 700 Pattern_103 + 350 Pattern_104
 + 700 Pattern_105 + 525 Pattern_106 + 700 Pattern_107 + 1200 Pattern_108
 + 950 Pattern_109 + 700 Pattern_11 + 700 Pattern_110 + 950 Pattern_111
 + 700 Pattern_112 + 700 Pattern_113 + 700 Pattern_114 + 950 Pattern_115
 + 525 Pattern_116 + 950 Pattern_117 + 950 Pattern_118 + 700 Pattern_119
 + 950 Pattern_12 + 700 Pattern_120 + 700 Pattern_121 + 700 Pattern_122
 + 950 Pattern_123 + 950 Pattern_124 + 950 Pattern_125 + 700 Pattern_126
 + 525 Pattern_127 + 700 Pattern_128 + 700 Pattern_129 + 700 Pattern_13
 + 525 Pattern_130 + 950 Pattern_131 + 950 Pattern_132 + 700 Pattern_133
 + 525 Pattern_134 + 1200 Pattern_135 + 700 Pattern_136 + 700 Pattern_137
 + 950 Pattern_138 + 950 Pattern_139 + 350 Pattern_14 + 700 Pattern_140
 + 525 Pattern_141 + 700 Pattern_142 + 700 Pattern_143 + 525 Pattern_144
 + 700 Pattern_145 + 950 Pattern_146 + 350 Pattern_147 + 950 Pattern_148
 + 525 Pattern_149 + 700 Pattern_15 + 950 Pattern_150 + 700 Pattern_151
 + 950 Pattern_152 + 950 Pattern_153 + 950 Pattern_154 + 950 Pattern_155
 + 525 Pattern_156 + 700 Pattern_157 + 950 Pattern_158 + 525 Pattern_159
 + 700 Pattern_16 + 700 Pattern_160 + 700 Pattern_161 + 350 Pattern_162
 + 700 Pattern_163 + 700 Pattern_164 + 950 Pattern_165 + 950 Pattern_166
 + 950 Pattern_167 + 700 Pattern_168 + 700 Pattern_169 + 950 Pattern_17
 + 700 Pattern_170 + 950 Pattern_171 + 700 Pattern_172 + 1200 Pattern_173
 + 350 Pattern_174 + 950 Pattern_175 + 950 Pattern_176 + 950 Pattern_177
 + 525 Pattern_178 + 950 Pattern_179 + 700 Pattern_18 + 950 Pattern_180
 + 950 Pattern_181 + 700 Pattern_182 + 950 Pattern_183 + 700 Pattern_184
 + 525 Pattern_185 + 950 Pattern_186 + 950 Pattern_187 + 525 Pattern_188
 + 700 Pattern_189 + 700 Pattern_19 + 700 Pattern_190 + 350 Pattern_191
 + 700 Pattern_192 + 700 Pattern_193 + 700 Pattern_194 + 700 Pattern_195
 + 700 Pattern_196 + 700 Pattern_197 + 525 Pattern_198 + 700 Pattern_199
 + 700 Pattern_2 + 950 Pattern_20 + 950 Pattern_200 + 525 Pattern_201
 + 950 Pattern_202 + 700 Pattern_203 + 700 Pattern_204 + 700 Pattern_205
 + 950 Pattern_206 + 350 Pattern_207 + 525 Pattern_208 + 700 Pattern_209
 + 700 Pattern_21 + 950 Pattern_210 + 700 Pattern_211 + 700 Pattern_212
 + 700 Pattern_213 + 525 Pattern_214 + 950 Pattern_215 + 950 Pattern_216
 + 525 Pattern_217 + 700 Pattern_218 + 700 Pattern_219 + 950 Pattern_22
 + 700 Pattern_220 + 700 Pattern_221 + 700 Pattern_222 + 350 Pattern_223
 + 950 Pattern_224 + 525 Pattern_225 + 950 Pattern_226 + 950 Pattern_227
 + 950 Pattern_228 + 700 Pattern_229 + 700 Pattern_23 + 950 Pattern_230
 + 525 Pattern_231 + 700 Pattern_232 + 700 Pattern_233 + 950 Pattern_234
 + 350 Pattern_235 + 700 Pattern_236 + 950 Pattern_237 + 350 Pattern_238
 + 950 Pattern_239 + 950 Pattern_24 + 525 Pattern_240 + 700 Pattern_241
 + 950 Pattern_242 + 950 Pattern_243 + 950 Pattern_244 + 950 Pattern_245
 + 950 Pattern_246 + 525 Pattern_247 + 950 Pattern_248 + 700 Pattern_249
 + 700 Pattern_25 + 525 Pattern_250 + 700 Pattern_251 + 700 Pattern_252
 + 350 Pattern_253 + 700 Pattern_254 + 700 Pattern_255 + 950 Pattern_256
 + 950 Pattern_257 + 700 Pattern_258 + 700 Pattern_259 + 525 Pattern_26
 + 950 Pattern_260 + 950 Pattern_261 + 350 Pattern_262 + 950 Pattern_263
 + 700 Pattern_264 + 525 Pattern_265 + 700 Pattern_266 + 700 Pattern_267
 + 350 Pattern_268 + 700 Pattern_269 + 700 Pattern_27 + 700 Pattern_270
 + 950 Pattern_271 + 950 Pattern_272 + 525 Pattern_273 + 950 Pattern_274
 + 700 Pattern_275 + 950 Pattern_276 + 525 Pattern_277 + 700 Pattern_278
 + 950 Pattern_279 + 700 Pattern_28 + 350 Pattern_280 + 950 Pattern_281
 + 700 Pattern_282 + 350 Pattern_283 + 700 Pattern_284 + 700 Pattern_285
 + 700 Pattern_286 + 700 Pattern_287 + 950 Pattern_288 + 700 Pattern_289
 + 350 Pattern_29 + 350 Pattern_290 + 700 Pattern_291 + 950 Pattern_292
 + 525 Pattern_293 + 700 Pattern_294 + 950 Pattern_295 + 525 Pattern_296
 + 700 Pattern_297 + 700 Pattern_298 + 350 Pattern_299 + 950 Pattern_3
 + 700 Pattern_30 + 700 Pattern_31 + 950 Pattern_32 + 950 Pattern_33
 + 700 Pattern_34 + 700 Pattern_35 + 950 Pattern_36 + 700 Pattern_37
 + 700 Pattern_38 + 700 Pattern_39 + 700 Pattern_4 + 700 Pattern_40
 + 525 Pattern_41 + 700 Pattern_42 + 700 Pattern_43 + 350 Pattern_44
 + 700 Pattern_45 + 700 Pattern_46 + 525 Pattern_47 + 950 Pattern_48
 + 950 Pattern_49 + 950 Pattern_5 + 950 Pattern_50 + 950 Pattern_51
 + 700 Pattern_52 + 700 Pattern_53 + 700 Pattern_54 + 950 Pattern_55
 + 525 Pattern_56 + 950 Pattern_57 + 700 Pattern_58 + 350 Pattern_59
 + 700 Pattern_6 + 700 Pattern_60 + 700 Pattern_61 + 950 Pattern_62
 + 950 Pattern_63 + 950 Pattern_64 + 700 Pattern_65 + 950 Pattern_66
 + 700 Pattern_67 + 700 Pattern_68 + 700 Pattern_69 + 700 Pattern_7
 + 700 Pattern_70 + 525 Pattern_71 + 700 Pattern_72 + 700 Pattern_73
 + 350 Pattern_74 + 700 Pattern_75 + 700 Pattern_76 + 700 Pattern_77
 + 950 Pattern_78 + 1200 Pattern_79 + 700 Pattern_8 + 700 Pattern_80
 + 700 Pattern_81 + 950 Pattern_82 + 700 Pattern_83 + 950 Pattern_84
 + 950 Pattern_85 + 525 Pattern_86 + 700 Pattern_87 + 950 Pattern_88
 + 350 Pattern_89 + 700 Pattern_9 + 950 Pattern_90 + 525 Pattern_91
 + 700 Pattern_92 + 950 Pattern_93 + 950 Pattern_94 + 700 Pattern_95
 + 950 Pattern_96 + 700 Pattern_97 + 525 Pattern_98 + 700 Pattern_99
Subject To
Satisfying_demand_for_Noel_Leeming_Albany: Pattern_1 + Pattern_105
 + Pattern_119 + Pattern_134 + Pattern_148 + Pattern_16 + Pattern_164
 + Pattern_177 + Pattern_192 + Pattern_209 + Pattern_225 + Pattern_240
 + Pattern_254 + Pattern_269 + Pattern_285 + Pattern_31 + Pattern_45
 + Pattern_60 + Pattern_75 + Pattern_91 = 1
Satisfying_demand_for_Noel_Leeming_Botany: Pattern_102 + Pattern_118
 + Pattern_131 + Pattern_14 + Pattern_145 + Pattern_160 + Pattern_176
 + Pattern_191 + Pattern_206 + Pattern_222 + Pattern_237 + Pattern_251
 + Pattern_267 + Pattern_28 + Pattern_283 + Pattern_299 + Pattern_44
 + Pattern_58 + Pattern_73 + Pattern_87 = 1
Satisfying_demand_for_Noel_Leeming_Glenfield_Clearance: Pattern_0
 + Pattern_106 + Pattern_119 + Pattern_133 + Pattern_148 + Pattern_16
 + Pattern_163 + Pattern_178 + Pattern_192 + Pattern_208 + Pattern_225
 + Pattern_239 + Pattern_254 + Pattern_269 + Pattern_285 + Pattern_30
 + Pattern_46 + Pattern_61 + Pattern_75 + Pattern_91 = 1
Satisfying_demand_for_Noel_Leeming_Henderson: Pattern_109 + Pattern_123
 + Pattern_135 + Pattern_150 + Pattern_167 + Pattern_17 + Pattern_179
 + Pattern_194 + Pattern_211 + Pattern_227 + Pattern_243 + Pattern_257
 + Pattern_274 + Pattern_288 + Pattern_33 + Pattern_49 + Pattern_5
 + Pattern_63 + Pattern_80 + Pattern_93 = 1
Satisfying_demand_for_Noel_Leeming_Lunn_Avenue: Pattern_111 + Pattern_127
 + Pattern_139 + Pattern_156 + Pattern_169 + Pattern_183 + Pattern_200
 + Pattern_215 + Pattern_22 + Pattern_232 + Pattern_247 + Pattern_260
 + Pattern_275 + Pattern_293 + Pattern_38 + Pattern_51 + Pattern_67
 + Pattern_7 + Pattern_82 + Pattern_97 = 1
Satisfying_demand_for_Noel_Leeming_Manukau_Supa_Centre: Pattern_103
 + Pattern_118 + Pattern_13 + Pattern_132 + Pattern_147 + Pattern_162
 + Pattern_176 + Pattern_189 + Pattern_205 + Pattern_221 + Pattern_236
 + Pattern_252 + Pattern_268 + Pattern_28 + Pattern_281 + Pattern_298
 + Pattern_43 + Pattern_58 + Pattern_73 + Pattern_87 = 1
Satisfying_demand_for_Noel_Leeming_Manukau_Westfield: Pattern_103
 + Pattern_118 + Pattern_13 + Pattern_132 + Pattern_145 + Pattern_160
 + Pattern_176 + Pattern_190 + Pattern_207 + Pattern_221 + Pattern_238
 + Pattern_252 + Pattern_266 + Pattern_27 + Pattern_282 + Pattern_297
 + Pattern_43 + Pattern_59 + Pattern_72 + Pattern_87 = 1
Satisfying_demand_for_Noel_Leeming_Massey: Pattern_110 + Pattern_123
 + Pattern_137 + Pattern_150 + Pattern_166 + Pattern_17 + Pattern_182
 + Pattern_196 + Pattern_211 + Pattern_228 + Pattern_242 + Pattern_256
 + Pattern_272 + Pattern_289 + Pattern_3 + Pattern_32 + Pattern_47
 + Pattern_64 + Pattern_79 + Pattern_93 = 1
Satisfying_demand_for_Noel_Leeming_New_Lynn: Pattern_110 + Pattern_124
 + Pattern_135 + Pattern_152 + Pattern_165 + Pattern_181 + Pattern_194
 + Pattern_20 + Pattern_210 + Pattern_229 + Pattern_243 + Pattern_257
 + Pattern_271 + Pattern_290 + Pattern_34 + Pattern_4 + Pattern_48
 + Pattern_62 + Pattern_78 + Pattern_95 = 1
Satisfying_demand_for_Noel_Leeming_Newmarket: Pattern_111 + Pattern_126
 + Pattern_141 + Pattern_156 + Pattern_171 + Pattern_184 + Pattern_201
 + Pattern_21 + Pattern_216 + Pattern_231 + Pattern_246 + Pattern_260
 + Pattern_277 + Pattern_292 + Pattern_38 + Pattern_53 + Pattern_68
 + Pattern_8 + Pattern_81 + Pattern_97 = 1
Satisfying_demand_for_Noel_Leeming_Ormiston: Pattern_102 + Pattern_118
 + Pattern_12 + Pattern_132 + Pattern_145 + Pattern_161 + Pattern_175
 + Pattern_189 + Pattern_206 + Pattern_223 + Pattern_236 + Pattern_251
 + Pattern_267 + Pattern_27 + Pattern_282 + Pattern_297 + Pattern_42
 + Pattern_57 + Pattern_72 + Pattern_88 = 1
Satisfying_demand_for_Noel_Leeming_Papakura: Pattern_114 + Pattern_128
 + Pattern_142 + Pattern_157 + Pattern_172 + Pattern_186 + Pattern_202
 + Pattern_218 + Pattern_233 + Pattern_24 + Pattern_248 + Pattern_263
 + Pattern_278 + Pattern_294 + Pattern_39 + Pattern_54 + Pattern_69
 + Pattern_84 + Pattern_9 + Pattern_99 = 1
Satisfying_demand_for_Noel_Leeming_Papatoetoe: Pattern_10 + Pattern_100
 + Pattern_116 + Pattern_130 + Pattern_143 + Pattern_159 + Pattern_173
 + Pattern_188 + Pattern_203 + Pattern_219 + Pattern_234 + Pattern_249
 + Pattern_25 + Pattern_264 + Pattern_279 + Pattern_296 + Pattern_40
 + Pattern_56 + Pattern_70 + Pattern_86 = 1
Satisfying_demand_for_Noel_Leeming_Penrose_Clearance: Pattern_10 + Pattern_101
 + Pattern_115 + Pattern_129 + Pattern_144 + Pattern_158 + Pattern_173
 + Pattern_187 + Pattern_203 + Pattern_219 + Pattern_234 + Pattern_250
 + Pattern_26 + Pattern_264 + Pattern_279 + Pattern_296 + Pattern_41
 + Pattern_55 + Pattern_71 + Pattern_86 = 1
Satisfying_demand_for_Noel_Leeming_Queen_Street: Pattern_111 + Pattern_125
 + Pattern_139 + Pattern_154 + Pattern_170 + Pattern_184 + Pattern_200
 + Pattern_21 + Pattern_216 + Pattern_230 + Pattern_247 + Pattern_261
 + Pattern_275 + Pattern_291 + Pattern_37 + Pattern_52 + Pattern_67
 + Pattern_8 + Pattern_81 + Pattern_96 = 1
Satisfying_demand_for_Noel_Leeming_Royal_Oak: Pattern_111 + Pattern_126
 + Pattern_139 + Pattern_155 + Pattern_169 + Pattern_185 + Pattern_200
 + Pattern_21 + Pattern_216 + Pattern_232 + Pattern_245 + Pattern_260
 + Pattern_276 + Pattern_291 + Pattern_36 + Pattern_52 + Pattern_66
 + Pattern_7 + Pattern_81 + Pattern_98 = 1
Satisfying_demand_for_Noel_Leeming_St_Lukes_Mega: Pattern_108 + Pattern_124
 + Pattern_135 + Pattern_150 + Pattern_165 + Pattern_180 + Pattern_196
 + Pattern_20 + Pattern_213 + Pattern_226 + Pattern_244 + Pattern_256
 + Pattern_273 + Pattern_288 + Pattern_34 + Pattern_4 + Pattern_50
 + Pattern_65 + Pattern_77 + Pattern_94 = 1
Satisfying_demand_for_Noel_Leeming_St_Lukes_Westfield: Pattern_110
 + Pattern_123 + Pattern_138 + Pattern_153 + Pattern_167 + Pattern_17
 + Pattern_181 + Pattern_196 + Pattern_210 + Pattern_228 + Pattern_244
 + Pattern_257 + Pattern_274 + Pattern_289 + Pattern_34 + Pattern_4
 + Pattern_48 + Pattern_64 + Pattern_77 + Pattern_95 = 1
Satisfying_demand_for_Noel_Leeming_Sylvia_Park: Pattern_100 + Pattern_11
 + Pattern_116 + Pattern_129 + Pattern_143 + Pattern_159 + Pattern_173
 + Pattern_188 + Pattern_204 + Pattern_220 + Pattern_234 + Pattern_249
 + Pattern_25 + Pattern_265 + Pattern_279 + Pattern_295 + Pattern_40
 + Pattern_56 + Pattern_70 + Pattern_85 = 1
Satisfying_demand_for_Noel_Leeming_Wairau_Park: Pattern_1 + Pattern_106
 + Pattern_120 + Pattern_133 + Pattern_149 + Pattern_15 + Pattern_164
 + Pattern_177 + Pattern_192 + Pattern_208 + Pattern_225 + Pattern_239
 + Pattern_254 + Pattern_270 + Pattern_284 + Pattern_31 + Pattern_45
 + Pattern_61 + Pattern_75 + Pattern_91 = 1
Satisfying_demand_for_The_Warehouse_Airport: Pattern_101 + Pattern_11
 + Pattern_115 + Pattern_129 + Pattern_144 + Pattern_158 + Pattern_173
 + Pattern_187 + Pattern_204 + Pattern_220 + Pattern_234 + Pattern_250
 + Pattern_26 + Pattern_264 + Pattern_279 + Pattern_295 + Pattern_40
 + Pattern_55 + Pattern_71 + Pattern_85 = 1
Satisfying_demand_for_The_Warehouse_Albany: Pattern_1 + Pattern_106
 + Pattern_120 + Pattern_133 + Pattern_148 + Pattern_15 + Pattern_163
 + Pattern_177 + Pattern_193 + Pattern_208 + Pattern_224 + Pattern_239
 + Pattern_255 + Pattern_270 + Pattern_285 + Pattern_31 + Pattern_45
 + Pattern_60 + Pattern_76 + Pattern_90 = 1
Satisfying_demand_for_The_Warehouse_Atrium: Pattern_113 + Pattern_125
 + Pattern_141 + Pattern_154 + Pattern_171 + Pattern_183 + Pattern_200
 + Pattern_215 + Pattern_23 + Pattern_230 + Pattern_246 + Pattern_261
 + Pattern_277 + Pattern_292 + Pattern_36 + Pattern_51 + Pattern_66
 + Pattern_8 + Pattern_83 + Pattern_96 = 1
Satisfying_demand_for_The_Warehouse_Botany_Downs: Pattern_103 + Pattern_117
 + Pattern_12 + Pattern_132 + Pattern_146 + Pattern_161 + Pattern_176
 + Pattern_190 + Pattern_205 + Pattern_222 + Pattern_237 + Pattern_253
 + Pattern_266 + Pattern_27 + Pattern_281 + Pattern_298 + Pattern_42
 + Pattern_57 + Pattern_72 + Pattern_89 = 1
Satisfying_demand_for_The_Warehouse_Clendon: Pattern_114 + Pattern_128
 + Pattern_142 + Pattern_157 + Pattern_172 + Pattern_186 + Pattern_202
 + Pattern_218 + Pattern_233 + Pattern_24 + Pattern_248 + Pattern_263
 + Pattern_278 + Pattern_294 + Pattern_39 + Pattern_54 + Pattern_69
 + Pattern_84 + Pattern_9 + Pattern_99 = 1
Satisfying_demand_for_The_Warehouse_Glenfield_Mall: Pattern_0 + Pattern_105
 + Pattern_120 + Pattern_134 + Pattern_149 + Pattern_16 + Pattern_163
 + Pattern_178 + Pattern_193 + Pattern_209 + Pattern_224 + Pattern_240
 + Pattern_255 + Pattern_269 + Pattern_284 + Pattern_30 + Pattern_46
 + Pattern_61 + Pattern_76 + Pattern_90 = 1
Satisfying_demand_for_The_Warehouse_Lincoln_Road: Pattern_108 + Pattern_124
 + Pattern_135 + Pattern_153 + Pattern_168 + Pattern_180 + Pattern_194
 + Pattern_20 + Pattern_212 + Pattern_227 + Pattern_241 + Pattern_257
 + Pattern_272 + Pattern_286 + Pattern_3 + Pattern_32 + Pattern_50
 + Pattern_62 + Pattern_78 + Pattern_94 = 1
Satisfying_demand_for_The_Warehouse_Lunn_Avenue: Pattern_112 + Pattern_125
 + Pattern_139 + Pattern_155 + Pattern_169 + Pattern_183 + Pattern_201
 + Pattern_216 + Pattern_22 + Pattern_230 + Pattern_245 + Pattern_260
 + Pattern_276 + Pattern_293 + Pattern_36 + Pattern_52 + Pattern_6
 + Pattern_67 + Pattern_83 + Pattern_98 = 1
Satisfying_demand_for_The_Warehouse_Manukau: Pattern_102 + Pattern_117
 + Pattern_12 + Pattern_131 + Pattern_146 + Pattern_160 + Pattern_175
 + Pattern_190 + Pattern_205 + Pattern_221 + Pattern_237 + Pattern_252
 + Pattern_266 + Pattern_28 + Pattern_282 + Pattern_298 + Pattern_42
 + Pattern_58 + Pattern_74 + Pattern_88 = 1
Satisfying_demand_for_The_Warehouse_Milford: Pattern_0 + Pattern_105
 + Pattern_119 + Pattern_133 + Pattern_148 + Pattern_15 + Pattern_164
 + Pattern_177 + Pattern_192 + Pattern_209 + Pattern_224 + Pattern_239
 + Pattern_254 + Pattern_270 + Pattern_284 + Pattern_30 + Pattern_46
 + Pattern_60 + Pattern_75 + Pattern_90 = 1
Satisfying_demand_for_The_Warehouse_Mt_Roskill: Pattern_107 + Pattern_122
 + Pattern_136 + Pattern_153 + Pattern_168 + Pattern_182 + Pattern_19
 + Pattern_197 + Pattern_2 + Pattern_212 + Pattern_226 + Pattern_243
 + Pattern_259 + Pattern_271 + Pattern_286 + Pattern_35 + Pattern_49
 + Pattern_63 + Pattern_77 + Pattern_94 = 1
Satisfying_demand_for_The_Warehouse_New_Lynn: Pattern_108 + Pattern_122
 + Pattern_138 + Pattern_151 + Pattern_165 + Pattern_181 + Pattern_19
 + Pattern_195 + Pattern_214 + Pattern_228 + Pattern_244 + Pattern_259
 + Pattern_272 + Pattern_288 + Pattern_3 + Pattern_33 + Pattern_48
 + Pattern_64 + Pattern_80 + Pattern_93 = 1
Satisfying_demand_for_The_Warehouse_Newmarket: Pattern_113 + Pattern_127
 + Pattern_140 + Pattern_154 + Pattern_171 + Pattern_185 + Pattern_199
 + Pattern_215 + Pattern_23 + Pattern_231 + Pattern_245 + Pattern_262
 + Pattern_275 + Pattern_292 + Pattern_38 + Pattern_51 + Pattern_6
 + Pattern_66 + Pattern_82 + Pattern_96 = 1
Satisfying_demand_for_The_Warehouse_Pakuranga: Pattern_104 + Pattern_117
 + Pattern_13 + Pattern_131 + Pattern_146 + Pattern_161 + Pattern_175
 + Pattern_189 + Pattern_206 + Pattern_222 + Pattern_236 + Pattern_251
 + Pattern_267 + Pattern_281 + Pattern_29 + Pattern_297 + Pattern_43
 + Pattern_57 + Pattern_73 + Pattern_88 = 1
Satisfying_demand_for_The_Warehouse_Royal_Oak: Pattern_112 + Pattern_126
 + Pattern_140 + Pattern_155 + Pattern_170 + Pattern_184 + Pattern_199
 + Pattern_217 + Pattern_22 + Pattern_232 + Pattern_246 + Pattern_261
 + Pattern_276 + Pattern_291 + Pattern_37 + Pattern_53 + Pattern_68
 + Pattern_7 + Pattern_82 + Pattern_97 = 1
Satisfying_demand_for_The_Warehouse_St_Lukes: Pattern_107 + Pattern_121
 + Pattern_136 + Pattern_152 + Pattern_166 + Pattern_17 + Pattern_179
 + Pattern_197 + Pattern_211 + Pattern_226 + Pattern_242 + Pattern_258
 + Pattern_273 + Pattern_287 + Pattern_32 + Pattern_5 + Pattern_50
 + Pattern_62 + Pattern_79 + Pattern_95 = 1
Satisfying_demand_for_The_Warehouse_Sylvia_Park: Pattern_10 + Pattern_100
 + Pattern_115 + Pattern_130 + Pattern_143 + Pattern_158 + Pattern_174
 + Pattern_187 + Pattern_203 + Pattern_219 + Pattern_235 + Pattern_249
 + Pattern_25 + Pattern_265 + Pattern_280 + Pattern_295 + Pattern_41
 + Pattern_55 + Pattern_70 + Pattern_85 = 1
Satisfying_demand_for_The_Warehouse_Takanini: Pattern_114 + Pattern_128
 + Pattern_142 + Pattern_157 + Pattern_172 + Pattern_186 + Pattern_202
 + Pattern_218 + Pattern_233 + Pattern_24 + Pattern_248 + Pattern_263
 + Pattern_278 + Pattern_294 + Pattern_39 + Pattern_54 + Pattern_69
 + Pattern_84 + Pattern_9 + Pattern_99 = 1
Satisfying_demand_for_The_Warehouse_WestCity: Pattern_109 + Pattern_121
 + Pattern_137 + Pattern_151 + Pattern_166 + Pattern_18 + Pattern_180
 + Pattern_195 + Pattern_213 + Pattern_229 + Pattern_241 + Pattern_258
 + Pattern_271 + Pattern_287 + Pattern_33 + Pattern_49 + Pattern_5
 + Pattern_65 + Pattern_79 + Pattern_92 = 1
Satisfying_demand_for_The_Warehouse_Westgate: Pattern_109 + Pattern_123
 + Pattern_138 + Pattern_152 + Pattern_167 + Pattern_179 + Pattern_18
 + Pattern_198 + Pattern_2 + Pattern_210 + Pattern_227 + Pattern_242
 + Pattern_256 + Pattern_274 + Pattern_289 + Pattern_35 + Pattern_47
 + Pattern_63 + Pattern_78 + Pattern_92 = 1
Binaries
Pattern_0
Pattern_1
Pattern_10
Pattern_100
Pattern_101
Pattern_102
Pattern_103
Pattern_104
Pattern_105
Pattern_106
Pattern_107
Pattern_108
Pattern_109
Pattern_11
Pattern_110
Pattern_111
Pattern_112
Pattern_113
Pattern_114
Pattern_115
Pattern_116
Pattern_117
Pattern_118
Pattern_119
Pattern_12
Pattern_120
Pattern_121
Pattern_122
Pattern_123
Pattern_124
Pattern_125
Pattern_126
Pattern_127
Pattern_128
Pattern_129
Pattern_13
Pattern_130
Pattern_131
Pattern_132
Pattern_133
Pattern_134
Pattern_135
Pattern_136
Pattern_137
Pattern_138
Pattern_139
Pattern_14
Pattern_140
Pattern_141
Pattern_142
Pattern_143
Pattern_144
Pattern_145
Pattern_146
Pattern_147
Pattern_148
Pattern_149
Pattern_15
Pattern_150
Pattern_151
Pattern_152
Pattern_153
Pattern_154
Pattern_155
Pattern_156
Pattern_157
Pattern_158
Pattern_159
Pattern_16
Pattern_160
Pattern_161
Pattern_162
Pattern_163
Pattern_164
Pattern_165
Pattern_166
Pattern_167
Pattern_168
Pattern_169
Pattern_17
Pattern_170
Pattern_171
Pattern_172
Pattern_173
Pattern_174
Pattern_175
Pattern_176
Pattern_177
Pattern_178
Pattern_179
Pattern_18
Pattern_180
Pattern_181
Pattern_182
Pattern_183
Pattern_184
Pattern_185
Pattern_186
Pattern_187
Pattern_188
Pattern_189
Pattern_19
Pattern_190
Pattern_191
Pattern_192
Pattern_193
Pattern_194
Pattern_195
Pattern_196
Pattern_197
Pattern_198
Pattern_199
Pattern_2
Pattern_20
Pattern_200
Pattern_201
Pattern_202
Pattern_203
Pattern_204
Pattern_205
Pattern_206
Pattern_207
Pattern_208
Pattern_209
Pattern_21
Pattern_210
Pattern_211
Pattern_212
Pattern_213
Pattern_214
Pattern_215
Pattern_216
Pattern_217
Pattern_218
Pattern_219
Pattern_22
Pattern_220
Pattern_221
Pattern_222
Pattern_223
Pattern_224
Pattern_225
Pattern_226
Pattern_227
Pattern_228
Pattern_229
Pattern_23
Pattern_230
Pattern_231
Pattern_232
Pattern_233
Pattern_234
Pattern_235
Pattern_236
Pattern_237
Pattern_238
Pattern_239
Pattern_24
Pattern_240
Pattern_241
Pattern_242
Pattern_243
Pattern_244
Pattern_245
Pattern_246
Pattern_247
Pattern_248
Pattern_249
Pattern_25
Pattern_250
Pattern_251
Pattern_252
Pattern_253
Pattern_254
Pattern_255
Pattern_256
Pattern_257
Pattern_258
Pattern_259
Pattern_26
Pattern_260
Pattern_261
Pattern_262
Pattern_263
Pattern_264
Pattern_265
Pattern_266
Pattern_267
Pattern_268
Pattern_269
Pattern_27
Pattern_270
Pattern_271
Pattern_272
Pattern_273
Pattern_274
Pattern_275
Pattern_276
Pattern_277
Pattern_278
Pattern_279
Pattern_28
Pattern_280
Pattern_281
Pattern_282
Pattern_283
Pattern_284
Pattern_285
Pattern_286
Pattern_287
Pattern_288
Pattern_289
Pattern_29
Pattern_290
Pattern_291
Pattern_292
Pattern_293
Pattern_294
Pattern_295
Pattern_296
Pattern_297
Pattern_298
Pattern_299
Pattern_3
Pattern_30
Pattern_31
Pattern_32
Pattern_33
Pattern_34
Pattern_35
Pattern_36
Pattern_37
Pattern_38
Pattern_39
Pattern_4
Pattern_40
Pattern_41
Pattern_42
Pattern_43
Pattern_44
Pattern_45
Pattern_46
Pattern_47
Pattern_48
Pattern_49
Pattern_5
Pattern_50
Pattern_51
Pattern_52
Pattern_53
Pattern_54
Pattern_55
Pattern_56
Pattern_57
Pattern_58
Pattern_59
Pattern_6
Pattern_60
Pattern_61
Pattern_62
Pattern_63
Pattern_64
Pattern_65
Pattern_66
Pattern_67
Pattern_68
Pattern_69
Pattern_7
Pattern_70
Pattern_71
Pattern_72
Pattern_73
Pattern_74
Pattern_75
Pattern_76
Pattern_77
Pattern_78
Pattern_79
Pattern_8
Pattern_80
Pattern_81
Pattern_82
Pattern_83
Pattern_84
Pattern_85
Pattern_86
Pattern_87
Pattern_88
Pattern_89
Pattern_9
Pattern_90
Pattern_91
Pattern_92
Pattern_93
Pattern_94
Pattern_95
Pattern_96
Pattern_97
Pattern_98
Pattern_99
End
